decision_x1=[0,7];
decision_x2=[0,7];
decision_x3=[0,7];
decision_x4=[0,7];
decision_x5=[0,7];
decision_x6=[0,7];
decision_x7=[0,7];
decision_x8=[0,7];
decision_x9=[0,7];
decision_x10=[0,7];
decision_x11=[0,7];
decision_x12=[0,7];
decision_x13=[0,7];
decision_x14=[0,7];
decision_x15=[0,7];
decision_x16=[0,7];
decision_x17=[0,7];
decision_x18=[0,7];
decision_x19=[0,7];
decision_x20=[0,7];
random_y1=[0,7];
random_y2=[0,7];
random_y3=[0,7];
random_y4=[0,7];
random_y5=[0,7];
random_y6=[0,7];
random_y7=[0,7];
random_y8=[0,7];
random_y9=[0,7];
constraint_x2_x1=[
0,0,7.3|
0,1,8.6|
0,2,9.2|
0,3,9.9|
0,4,9.4|
0,5,2.3|
0,6,8.2|
0,7,4.6|
1,0,9.3|
1,1,0.92|
1,2,6.5|
1,3,0.14|
1,4,3.6|
1,5,1.6|
1,6,8.7|
1,7,5.8|
2,0,6.4|
2,1,7.6|
2,2,7.4|
2,3,0.71|
2,4,4.3|
2,5,3.4|
2,6,0.97|
2,7,6.6|
3,0,9.8|
3,1,5.5|
3,2,2.5|
3,3,7.2|
3,4,3.9|
3,5,6.3|
3,6,1.1|
3,7,9.8|
4,0,3.3|
4,1,0.11|
4,2,0.75|
4,3,4|
4,4,3.6|
4,5,7.5|
4,6,7.9|
4,7,3.1|
5,0,4.7|
5,1,3.3|
5,2,0.78|
5,3,5|
5,4,8.9|
5,5,1.7|
5,6,1.3|
5,7,2|
6,0,7.4|
6,1,0.15|
6,2,4.9|
6,3,1.8|
6,4,2.7|
6,5,3.3|
6,6,1.2|
6,7,4.7|
7,0,2.8|
7,1,6.7|
7,2,3.6|
7,3,3.4|
7,4,2.3|
7,5,8.3|
7,6,9.4|
7,7,1.3|
];
constraint_x3_x2=[
0,0,5.2|
0,1,3.8|
0,2,8.3|
0,3,7.9|
0,4,2.9|
0,5,4.4|
0,6,9.9|
0,7,0.83|
1,0,8.1|
1,1,3.8|
1,2,6|
1,3,9.7|
1,4,2.1|
1,5,8.2|
1,6,9.3|
1,7,4.7|
2,0,0.22|
2,1,9.7|
2,2,5.1|
2,3,3.7|
2,4,5.6|
2,5,3.5|
2,6,6.7|
2,7,5.8|
3,0,4.9|
3,1,9.6|
3,2,2.9|
3,3,5.6|
3,4,0.022|
3,5,0.16|
3,6,4.4|
3,7,4.2|
4,0,9.5|
4,1,2.2|
4,2,8.7|
4,3,3.4|
4,4,7.8|
4,5,5.8|
4,6,8.1|
4,7,2.3|
5,0,8.6|
5,1,3.9|
5,2,8.1|
5,3,10|
5,4,5.9|
5,5,4.3|
5,6,0.95|
5,7,0.96|
6,0,0.82|
6,1,0.33|
6,2,2.3|
6,3,7.9|
6,4,6.5|
6,5,0.66|
6,6,8.7|
6,7,2.7|
7,0,7.9|
7,1,6.8|
7,2,1.8|
7,3,2.4|
7,4,0.22|
7,5,4.7|
7,6,2.2|
7,7,9.9|
];
constraint_x4_x3=[
0,0,7.2|
0,1,1.8|
0,2,4.5|
0,3,4|
0,4,2.3|
0,5,0.79|
0,6,2.3|
0,7,2.1|
1,0,9.1|
1,1,9|
1,2,8.5|
1,3,1.5|
1,4,6.2|
1,5,1.7|
1,6,1.2|
1,7,5.7|
2,0,2|
2,1,7.4|
2,2,5.5|
2,3,6.9|
2,4,8.7|
2,5,7.4|
2,6,1.8|
2,7,8.7|
3,0,6.7|
3,1,3.7|
3,2,2.1|
3,3,6.6|
3,4,0.98|
3,5,0.066|
3,6,0.013|
3,7,8.9|
4,0,8.7|
4,1,9|
4,2,1.3|
4,3,6.9|
4,4,1.3|
4,5,0.78|
4,6,3.5|
4,7,3.5|
5,0,4.3|
5,1,4.2|
5,2,3.7|
5,3,8.9|
5,4,9.5|
5,5,5|
5,6,6.1|
5,7,8.1|
6,0,8.9|
6,1,2.7|
6,2,4.3|
6,3,5.9|
6,4,5.2|
6,5,0.48|
6,6,8.5|
6,7,4.2|
7,0,3.2|
7,1,7.5|
7,2,1.1|
7,3,1|
7,4,7|
7,5,8.2|
7,6,2.8|
7,7,6.4|
];
constraint_x5_x1=[
0,0,2.7|
0,1,9.2|
0,2,10|
0,3,1.3|
0,4,5.8|
0,5,2.1|
0,6,0.0066|
0,7,3.4|
1,0,2.4|
1,1,8.6|
1,2,0.33|
1,3,8|
1,4,0.14|
1,5,1.1|
1,6,3.7|
1,7,5.7|
2,0,2|
2,1,5|
2,2,4.3|
2,3,5.2|
2,4,5.3|
2,5,9.3|
2,6,5.8|
2,7,7.4|
3,0,8.3|
3,1,8.7|
3,2,9.7|
3,3,5.5|
3,4,9.4|
3,5,4.1|
3,6,0.43|
3,7,6.3|
4,0,5.6|
4,1,7.8|
4,2,4.8|
4,3,6.4|
4,4,0.46|
4,5,2.5|
4,6,5.8|
4,7,0.41|
5,0,8.6|
5,1,7|
5,2,3.9|
5,3,5.6|
5,4,4.6|
5,5,2.5|
5,6,1.7|
5,7,0.21|
6,0,8.3|
6,1,8.2|
6,2,3.1|
6,3,0.95|
6,4,6.3|
6,5,4.4|
6,6,9.4|
6,7,6|
7,0,5.2|
7,1,9.3|
7,2,9.6|
7,3,8.4|
7,4,8.6|
7,5,3.6|
7,6,5.8|
7,7,0.16|
];
constraint_x6_x2=[
0,0,2.8|
0,1,7.6|
0,2,9.7|
0,3,2|
0,4,7.4|
0,5,1.2|
0,6,7.3|
0,7,4.8|
1,0,3|
1,1,3|
1,2,1.9|
1,3,9.5|
1,4,3|
1,5,7.9|
1,6,0.46|
1,7,7|
2,0,3.5|
2,1,6.9|
2,2,6.2|
2,3,4.9|
2,4,7.8|
2,5,4.1|
2,6,3.4|
2,7,9.2|
3,0,0.73|
3,1,8.5|
3,2,6.6|
3,3,3.1|
3,4,7.2|
3,5,2.2|
3,6,4.9|
3,7,8|
4,0,4.6|
4,1,5.6|
4,2,1.1|
4,3,7.5|
4,4,9|
4,5,6.5|
4,6,1.1|
4,7,8.5|
5,0,9.6|
5,1,9.7|
5,2,1|
5,3,0.64|
5,4,6.8|
5,5,0.55|
5,6,3.1|
5,7,1.7|
6,0,2.8|
6,1,6|
6,2,6.6|
6,3,9.8|
6,4,4.1|
6,5,4.8|
6,6,6.4|
6,7,1.1|
7,0,0.34|
7,1,8.1|
7,2,6.8|
7,3,9.6|
7,4,4.9|
7,5,2.2|
7,6,5.8|
7,7,3.2|
];
constraint_x7_x3=[
0,0,9.4|
0,1,7.8|
0,2,2.1|
0,3,2|
0,4,4.6|
0,5,3.6|
0,6,2.7|
0,7,1.6|
1,0,1.5|
1,1,4.2|
1,2,1.6|
1,3,0.72|
1,4,7.5|
1,5,4.5|
1,6,9.2|
1,7,7.7|
2,0,7|
2,1,5.6|
2,2,4.8|
2,3,1.5|
2,4,9.3|
2,5,9.1|
2,6,0.52|
2,7,7.4|
3,0,3.6|
3,1,7.6|
3,2,0.92|
3,3,1.2|
3,4,8|
3,5,6.5|
3,6,3.6|
3,7,4.8|
4,0,6.3|
4,1,3.2|
4,2,0.85|
4,3,2.9|
4,4,5.1|
4,5,5.3|
4,6,2.1|
4,7,7.9|
5,0,4.2|
5,1,8.4|
5,2,8.8|
5,3,0.99|
5,4,4.9|
5,5,3.1|
5,6,8.4|
5,7,5.3|
6,0,6|
6,1,9.1|
6,2,7.1|
6,3,1.1|
6,4,5|
6,5,1.9|
6,6,2.9|
6,7,6.6|
7,0,4.6|
7,1,2.7|
7,2,4.8|
7,3,4.9|
7,4,8.1|
7,5,8.5|
7,6,2.4|
7,7,0.76|
];
constraint_x8_x4=[
0,0,0.75|
0,1,1.5|
0,2,0.84|
0,3,4.8|
0,4,2.3|
0,5,1.5|
0,6,2.5|
0,7,5.7|
1,0,4.7|
1,1,4.4|
1,2,9.9|
1,3,9.4|
1,4,6.7|
1,5,7.3|
1,6,5.9|
1,7,5.9|
2,0,1.3|
2,1,3.7|
2,2,3.2|
2,3,4.7|
2,4,3.2|
2,5,8|
2,6,4.1|
2,7,0.88|
3,0,4.2|
3,1,7.6|
3,2,7.2|
3,3,9.8|
3,4,1.6|
3,5,4.6|
3,6,1.6|
3,7,1.2|
4,0,6.1|
4,1,5.2|
4,2,0.99|
4,3,1.2|
4,4,1.9|
4,5,0.91|
4,6,1.1|
4,7,8.7|
5,0,6.9|
5,1,0.11|
5,2,2.5|
5,3,1|
5,4,4.8|
5,5,7|
5,6,2.4|
5,7,3.7|
6,0,5.2|
6,1,5.5|
6,2,0.69|
6,3,5.1|
6,4,6.6|
6,5,3.1|
6,6,1.3|
6,7,0.64|
7,0,4.6|
7,1,3.1|
7,2,3.2|
7,3,2.4|
7,4,9.5|
7,5,5.4|
7,6,0.61|
7,7,2.6|
];
constraint_x9_x5=[
0,0,5.3|
0,1,8.1|
0,2,6.2|
0,3,8.2|
0,4,7|
0,5,5.5|
0,6,3.8|
0,7,8.2|
1,0,6.6|
1,1,5.9|
1,2,2.8|
1,3,4.3|
1,4,4.3|
1,5,7.6|
1,6,1.5|
1,7,3.6|
2,0,1.1|
2,1,2.9|
2,2,6.4|
2,3,0.24|
2,4,9.8|
2,5,4.6|
2,6,8.2|
2,7,6.4|
3,0,2.6|
3,1,2.7|
3,2,5.1|
3,3,7.1|
3,4,7.6|
3,5,1.9|
3,6,3.7|
3,7,0.16|
4,0,3.9|
4,1,6.1|
4,2,9.4|
4,3,5.6|
4,4,7|
4,5,6.9|
4,6,4.8|
4,7,0.96|
5,0,8.8|
5,1,1.1|
5,2,1.2|
5,3,6.9|
5,4,8.2|
5,5,1.2|
5,6,7.3|
5,7,2.5|
6,0,2.7|
6,1,2.5|
6,2,8.2|
6,3,6.8|
6,4,3.7|
6,5,2.5|
6,6,9|
6,7,3.1|
7,0,4.5|
7,1,4.8|
7,2,2.3|
7,3,3.8|
7,4,3.5|
7,5,6|
7,6,8.4|
7,7,5.7|
];
constraint_x10_x6=[
0,0,6.4|
0,1,5.5|
0,2,2.9|
0,3,2.4|
0,4,4.3|
0,5,0.15|
0,6,3|
0,7,1.4|
1,0,0.49|
1,1,9.9|
1,2,3.7|
1,3,5.7|
1,4,5|
1,5,9.4|
1,6,9.6|
1,7,5.8|
2,0,5.8|
2,1,2.2|
2,2,6.9|
2,3,2.2|
2,4,5.5|
2,5,2.7|
2,6,1.8|
2,7,2.9|
3,0,7|
3,1,4.5|
3,2,1|
3,3,0.37|
3,4,2.7|
3,5,2.4|
3,6,2.4|
3,7,9.9|
4,0,2.5|
4,1,7|
4,2,9.7|
4,3,4.1|
4,4,2.7|
4,5,10|
4,6,6.8|
4,7,0.31|
5,0,9.4|
5,1,8.4|
5,2,1.3|
5,3,0.078|
5,4,6.2|
5,5,3.2|
5,6,5.9|
5,7,7.9|
6,0,6.7|
6,1,4.8|
6,2,4.3|
6,3,4.8|
6,4,7.8|
6,5,8.3|
6,6,6.1|
6,7,9.7|
7,0,2.7|
7,1,1.5|
7,2,3.6|
7,3,7.5|
7,4,9.6|
7,5,5.6|
7,6,5.9|
7,7,1.8|
];
constraint_x11_x7=[
0,0,9.7|
0,1,8.2|
0,2,0.72|
0,3,0.89|
0,4,3.6|
0,5,0.046|
0,6,1.2|
0,7,9.9|
1,0,4.5|
1,1,0.072|
1,2,0.46|
1,3,5|
1,4,7.5|
1,5,7.2|
1,6,7.4|
1,7,8.1|
2,0,4.9|
2,1,8.9|
2,2,1.1|
2,3,6.6|
2,4,6.9|
2,5,3.9|
2,6,4.6|
2,7,8.2|
3,0,6.6|
3,1,4.8|
3,2,5.9|
3,3,9.4|
3,4,3.9|
3,5,6.5|
3,6,8.9|
3,7,5.1|
4,0,6.2|
4,1,4.3|
4,2,3.9|
4,3,1.1|
4,4,2.1|
4,5,5.8|
4,6,2.6|
4,7,3.3|
5,0,8.7|
5,1,8.7|
5,2,0.93|
5,3,9.4|
5,4,4.4|
5,5,7.3|
5,6,7|
5,7,0.55|
6,0,0.2|
6,1,8.2|
6,2,4.4|
6,3,7.1|
6,4,8.4|
6,5,6.9|
6,6,9.9|
6,7,1.9|
7,0,3.2|
7,1,6.2|
7,2,0.48|
7,3,4.8|
7,4,6.9|
7,5,4|
7,6,6.7|
7,7,9.3|
];
constraint_x12_x8=[
0,0,3.6|
0,1,4|
0,2,5.2|
0,3,2.1|
0,4,9.8|
0,5,3.4|
0,6,0.0077|
0,7,8.8|
1,0,9.4|
1,1,9.7|
1,2,4.6|
1,3,8.1|
1,4,8.3|
1,5,7.3|
1,6,3.5|
1,7,0.28|
2,0,8.2|
2,1,3.5|
2,2,6.6|
2,3,8.2|
2,4,0.77|
2,5,8.1|
2,6,6.1|
2,7,5.3|
3,0,5|
3,1,0.57|
3,2,2.3|
3,3,6.3|
3,4,6.4|
3,5,5|
3,6,7.6|
3,7,3.3|
4,0,0.32|
4,1,7.1|
4,2,9.6|
4,3,3.2|
4,4,8.5|
4,5,5.5|
4,6,1.2|
4,7,4.1|
5,0,3.2|
5,1,6.2|
5,2,9.4|
5,3,2.6|
5,4,7.4|
5,5,7.1|
5,6,2.5|
5,7,5.9|
6,0,4.9|
6,1,0.12|
6,2,5|
6,3,4.5|
6,4,9.3|
6,5,5.8|
6,6,8.7|
6,7,8.1|
7,0,2.5|
7,1,8.4|
7,2,9|
7,3,1.1|
7,4,6.8|
7,5,3|
7,6,10|
7,7,8.7|
];
constraint_x13_x9=[
0,0,0.2|
0,1,9.6|
0,2,7.2|
0,3,2.9|
0,4,2.9|
0,5,8.2|
0,6,9.7|
0,7,6.9|
1,0,0.51|
1,1,4|
1,2,6.3|
1,3,6.1|
1,4,5.8|
1,5,5.6|
1,6,5|
1,7,9.9|
2,0,1.1|
2,1,8.2|
2,2,4.8|
2,3,2.3|
2,4,1.4|
2,5,7.1|
2,6,5.2|
2,7,8.3|
3,0,2.7|
3,1,7.1|
3,2,1.3|
3,3,7.8|
3,4,2.2|
3,5,0.91|
3,6,6.8|
3,7,2|
4,0,3.1|
4,1,7.4|
4,2,8.6|
4,3,5.7|
4,4,0.49|
4,5,9.3|
4,6,6|
4,7,2.7|
5,0,4.8|
5,1,2.7|
5,2,0.27|
5,3,7.5|
5,4,1|
5,5,5.9|
5,6,0.51|
5,7,8.4|
6,0,5|
6,1,8.2|
6,2,4.9|
6,3,8.1|
6,4,2.3|
6,5,2.2|
6,6,7.3|
6,7,2.2|
7,0,7.6|
7,1,7|
7,2,3.6|
7,3,1.3|
7,4,4.2|
7,5,4|
7,6,1.2|
7,7,6.2|
];
constraint_x14_x10=[
0,0,1.7|
0,1,2.4|
0,2,7|
0,3,6.3|
0,4,8.4|
0,5,0.98|
0,6,3.3|
0,7,6.5|
1,0,6.9|
1,1,5|
1,2,8.8|
1,3,2.3|
1,4,2|
1,5,4|
1,6,7.7|
1,7,5.6|
2,0,3.3|
2,1,1.9|
2,2,9.5|
2,3,8.9|
2,4,0.5|
2,5,8.1|
2,6,7.4|
2,7,3.9|
3,0,7.9|
3,1,8.3|
3,2,2.6|
3,3,7.1|
3,4,5.8|
3,5,7.1|
3,6,10|
3,7,0.31|
4,0,7.5|
4,1,9.7|
4,2,4.6|
4,3,5.2|
4,4,8.3|
4,5,0.82|
4,6,6|
4,7,0.86|
5,0,8.1|
5,1,0.37|
5,2,9.3|
5,3,4.6|
5,4,10|
5,5,5.7|
5,6,6.2|
5,7,3.1|
6,0,3.7|
6,1,6.6|
6,2,6.6|
6,3,7.7|
6,4,0.83|
6,5,1.4|
6,6,8.8|
6,7,8|
7,0,9.8|
7,1,0.95|
7,2,2.5|
7,3,1.6|
7,4,3.4|
7,5,6.4|
7,6,3.3|
7,7,3.2|
];
constraint_x15_x11=[
0,0,5.3|
0,1,5.7|
0,2,5.6|
0,3,8.2|
0,4,8.4|
0,5,4.6|
0,6,3.6|
0,7,2.4|
1,0,5.4|
1,1,4.2|
1,2,2.5|
1,3,6|
1,4,7.5|
1,5,8.3|
1,6,0.13|
1,7,6.3|
2,0,1.2|
2,1,8.6|
2,2,4.4|
2,3,5.9|
2,4,6.1|
2,5,0.17|
2,6,2.7|
2,7,7.8|
3,0,8.9|
3,1,5.4|
3,2,8.7|
3,3,1.7|
3,4,6.3|
3,5,0.71|
3,6,6.2|
3,7,5.2|
4,0,8.9|
4,1,9|
4,2,4.1|
4,3,2.1|
4,4,7.3|
4,5,7.4|
4,6,4.3|
4,7,3.1|
5,0,5.8|
5,1,1.2|
5,2,1.1|
5,3,6.6|
5,4,5.5|
5,5,1.3|
5,6,2.2|
5,7,7.5|
6,0,1.2|
6,1,0.6|
6,2,7.6|
6,3,5.2|
6,4,1.8|
6,5,4.5|
6,6,5.2|
6,7,1.4|
7,0,0.66|
7,1,3.3|
7,2,9.8|
7,3,5.2|
7,4,2.6|
7,5,9|
7,6,6.1|
7,7,0.08|
];
constraint_x16_x12=[
0,0,0.63|
0,1,5|
0,2,9.8|
0,3,1.4|
0,4,4.4|
0,5,9.4|
0,6,5.4|
0,7,6.2|
1,0,7.4|
1,1,7.4|
1,2,8.7|
1,3,0.12|
1,4,3|
1,5,9|
1,6,9.4|
1,7,1.4|
2,0,3|
2,1,5.6|
2,2,3.3|
2,3,7.6|
2,4,8.7|
2,5,3.8|
2,6,5.8|
2,7,1.7|
3,0,1.1|
3,1,2.1|
3,2,2.2|
3,3,0.15|
3,4,7|
3,5,2.7|
3,6,1.4|
3,7,9|
4,0,9.1|
4,1,9|
4,2,5.7|
4,3,7.5|
4,4,7.1|
4,5,6.3|
4,6,9.7|
4,7,6.2|
5,0,0.96|
5,1,3.3|
5,2,5.7|
5,3,8.2|
5,4,2.6|
5,5,0.25|
5,6,4.6|
5,7,6.7|
6,0,9.1|
6,1,3.2|
6,2,8.3|
6,3,1.1|
6,4,1.2|
6,5,5.6|
6,6,9.3|
6,7,9.3|
7,0,2.2|
7,1,5.7|
7,2,6.2|
7,3,7.5|
7,4,0.26|
7,5,4.8|
7,6,9.5|
7,7,0.44|
];
constraint_x17_x13=[
0,0,8.6|
0,1,6.6|
0,2,0.22|
0,3,8.9|
0,4,9.3|
0,5,0.63|
0,6,7|
0,7,2.6|
1,0,5.4|
1,1,0.75|
1,2,5|
1,3,8.1|
1,4,4.3|
1,5,9.4|
1,6,0.53|
1,7,0.24|
2,0,3.7|
2,1,3.3|
2,2,2.3|
2,3,3.3|
2,4,4.7|
2,5,7.8|
2,6,0.41|
2,7,1.5|
3,0,6.9|
3,1,3.4|
3,2,7.7|
3,3,5.6|
3,4,1.7|
3,5,7.6|
3,6,9.4|
3,7,8.9|
4,0,5.7|
4,1,8.4|
4,2,9.4|
4,3,1.7|
4,4,9.1|
4,5,5.9|
4,6,3.6|
4,7,5|
5,0,8.9|
5,1,3.7|
5,2,2.6|
5,3,9.7|
5,4,5.9|
5,5,7.6|
5,6,9.9|
5,7,0.14|
6,0,6.8|
6,1,8.2|
6,2,3.1|
6,3,8.9|
6,4,6.7|
6,5,6|
6,6,9.8|
6,7,4.8|
7,0,8.2|
7,1,6.1|
7,2,7.5|
7,3,8.3|
7,4,7.8|
7,5,4.2|
7,6,7.5|
7,7,4.8|
];
constraint_x18_x14=[
0,0,4.9|
0,1,6.5|
0,2,2.1|
0,3,4.3|
0,4,1.7|
0,5,3.9|
0,6,0.51|
0,7,3|
1,0,6.8|
1,1,8.9|
1,2,6.8|
1,3,3|
1,4,6.2|
1,5,2.7|
1,6,0.54|
1,7,3|
2,0,8.5|
2,1,0.62|
2,2,5.1|
2,3,9.4|
2,4,6|
2,5,0.24|
2,6,8.7|
2,7,7.7|
3,0,8.3|
3,1,0.88|
3,2,3.4|
3,3,8.4|
3,4,7.8|
3,5,9.1|
3,6,7.8|
3,7,6.4|
4,0,9.4|
4,1,0.17|
4,2,5.1|
4,3,1.8|
4,4,8.3|
4,5,0.28|
4,6,2.6|
4,7,9|
5,0,3|
5,1,3.9|
5,2,0.73|
5,3,1.4|
5,4,4.5|
5,5,5.8|
5,6,7.7|
5,7,8.2|
6,0,9|
6,1,3|
6,2,5.4|
6,3,2.7|
6,4,2.5|
6,5,4.5|
6,6,6.3|
6,7,8.4|
7,0,1.3|
7,1,7.3|
7,2,1.4|
7,3,0.12|
7,4,2.1|
7,5,4.9|
7,6,0.3|
7,7,0.92|
];
constraint_x19_x15=[
0,0,8.4|
0,1,4.4|
0,2,5|
0,3,1.9|
0,4,8.4|
0,5,1.9|
0,6,6|
0,7,8.9|
1,0,3.8|
1,1,9.9|
1,2,0.95|
1,3,7.6|
1,4,6.8|
1,5,9.4|
1,6,1.4|
1,7,1.6|
2,0,2|
2,1,1.1|
2,2,7.3|
2,3,0.82|
2,4,6.5|
2,5,4.3|
2,6,5.8|
2,7,3.9|
3,0,1.6|
3,1,0.097|
3,2,2.6|
3,3,9.2|
3,4,3.2|
3,5,9.8|
3,6,5.7|
3,7,5.5|
4,0,8|
4,1,3.4|
4,2,3.9|
4,3,2.9|
4,4,4.6|
4,5,2.3|
4,6,5.1|
4,7,5.9|
5,0,1.1|
5,1,3.4|
5,2,7.6|
5,3,1.1|
5,4,9.3|
5,5,8.2|
5,6,3.2|
5,7,3.1|
6,0,3.6|
6,1,3.4|
6,2,7.8|
6,3,3|
6,4,6.6|
6,5,5.7|
6,6,6.7|
6,7,2.2|
7,0,8.2|
7,1,6.9|
7,2,6.6|
7,3,7.6|
7,4,7.9|
7,5,2.4|
7,6,1.4|
7,7,2.3|
];
constraint_x20_x16=[
0,0,7.2|
0,1,0.06|
0,2,0.87|
0,3,6.4|
0,4,0.24|
0,5,1.6|
0,6,3|
0,7,5.3|
1,0,6.5|
1,1,3.6|
1,2,2.5|
1,3,7|
1,4,7.7|
1,5,8.7|
1,6,2.7|
1,7,3.7|
2,0,6.9|
2,1,9.2|
2,2,3.2|
2,3,7.5|
2,4,2.9|
2,5,8.7|
2,6,10|
2,7,8.7|
3,0,5|
3,1,0.27|
3,2,7.7|
3,3,1.3|
3,4,7.7|
3,5,8.1|
3,6,6.6|
3,7,0.51|
4,0,9.2|
4,1,4|
4,2,5.7|
4,3,9.2|
4,4,7.2|
4,5,0.032|
4,6,0.89|
4,7,6.5|
5,0,2.9|
5,1,2|
5,2,8|
5,3,8.9|
5,4,3|
5,5,9.4|
5,6,4.4|
5,7,5.3|
6,0,6.7|
6,1,9.3|
6,2,4.1|
6,3,0.97|
6,4,9.7|
6,5,5.8|
6,6,7.5|
6,7,0.16|
7,0,2.2|
7,1,8|
7,2,0.63|
7,3,5.1|
7,4,1|
7,5,0.24|
7,6,5.7|
7,7,2.9|
];
constraint_x1_y1=[
0,0,6.6|
0,1,9.9|
0,2,3.5|
0,3,8.5|
0,4,8.7|
0,5,0.089|
0,6,6.9|
0,7,3.2|
1,0,9.4|
1,1,5.8|
1,2,4|
1,3,5|
1,4,2.2|
1,5,7.4|
1,6,1.8|
1,7,2.6|
2,0,5.7|
2,1,7.7|
2,2,7|
2,3,2.3|
2,4,7.9|
2,5,0.64|
2,6,2.6|
2,7,4.8|
3,0,6.2|
3,1,7.5|
3,2,2.6|
3,3,9|
3,4,5.2|
3,5,7.2|
3,6,8.1|
3,7,3|
4,0,9.2|
4,1,4.4|
4,2,7.2|
4,3,7.6|
4,4,8.4|
4,5,8.6|
4,6,2.8|
4,7,7.2|
5,0,9.3|
5,1,5.3|
5,2,6|
5,3,4.2|
5,4,1.7|
5,5,5.2|
5,6,6.1|
5,7,2.6|
6,0,1.7|
6,1,6.9|
6,2,8.9|
6,3,4.1|
6,4,0.65|
6,5,2.4|
6,6,3.7|
6,7,7.1|
7,0,1.4|
7,1,5.6|
7,2,6.9|
7,3,6.7|
7,4,7.9|
7,5,6.8|
7,6,0.62|
7,7,7.4|
];
constraint_x2_y2=[
0,0,0.11|
0,1,3.4|
0,2,4.4|
0,3,6.1|
0,4,8|
0,5,3.8|
0,6,3.1|
0,7,3|
1,0,4|
1,1,7.5|
1,2,0.49|
1,3,5.5|
1,4,4.5|
1,5,1|
1,6,5.4|
1,7,0.49|
2,0,2.2|
2,1,0.96|
2,2,0.28|
2,3,7.7|
2,4,1.2|
2,5,4|
2,6,0.81|
2,7,8.6|
3,0,5|
3,1,1.3|
3,2,0.87|
3,3,5.2|
3,4,5.3|
3,5,3.3|
3,6,4.5|
3,7,5|
4,0,2.8|
4,1,9|
4,2,5.1|
4,3,3.4|
4,4,6.4|
4,5,4.7|
4,6,4.3|
4,7,1|
5,0,4.3|
5,1,6.8|
5,2,2.7|
5,3,2.2|
5,4,4.7|
5,5,1.4|
5,6,4.1|
5,7,4.4|
6,0,1.4|
6,1,9.1|
6,2,7.5|
6,3,8.2|
6,4,0.96|
6,5,5.5|
6,6,4.7|
6,7,7|
7,0,5.4|
7,1,1.7|
7,2,5.5|
7,3,3.4|
7,4,0.15|
7,5,7.7|
7,6,4|
7,7,0.68|
];
constraint_x3_y3=[
0,0,5.3|
0,1,0.8|
0,2,1.9|
0,3,6.3|
0,4,4.9|
0,5,1|
0,6,1.4|
0,7,7.6|
1,0,2.2|
1,1,4.5|
1,2,2|
1,3,5|
1,4,1.2|
1,5,9.3|
1,6,5|
1,7,4.2|
2,0,8.6|
2,1,6.7|
2,2,4.8|
2,3,7.5|
2,4,4.6|
2,5,2.1|
2,6,9.1|
2,7,1.4|
3,0,4|
3,1,4.1|
3,2,7.9|
3,3,3.1|
3,4,6.3|
3,5,5.9|
3,6,4.3|
3,7,4.2|
4,0,7.4|
4,1,4.7|
4,2,0.9|
4,3,1.4|
4,4,1.2|
4,5,6.2|
4,6,0.32|
4,7,9.7|
5,0,8.4|
5,1,0.37|
5,2,2.3|
5,3,8.9|
5,4,4.2|
5,5,6.2|
5,6,0.45|
5,7,8.2|
6,0,3.8|
6,1,5.8|
6,2,9.4|
6,3,4|
6,4,6.2|
6,5,4.4|
6,6,3.2|
6,7,0.43|
7,0,9.9|
7,1,1.6|
7,2,0.84|
7,3,0.53|
7,4,9.9|
7,5,7.1|
7,6,6.6|
7,7,4.2|
];
constraint_x4_y4=[
0,0,8.6|
0,1,6.1|
0,2,9.3|
0,3,3.7|
0,4,5.1|
0,5,6.2|
0,6,6.6|
0,7,9.5|
1,0,8.5|
1,1,3|
1,2,4.1|
1,3,3.6|
1,4,6.9|
1,5,7|
1,6,8.7|
1,7,3.4|
2,0,8|
2,1,5.8|
2,2,5.4|
2,3,0.79|
2,4,3|
2,5,3|
2,6,8.2|
2,7,2.1|
3,0,3.2|
3,1,1.1|
3,2,6.9|
3,3,5.3|
3,4,3.9|
3,5,5.6|
3,6,8|
3,7,5.1|
4,0,2|
4,1,5.2|
4,2,2.1|
4,3,0.59|
4,4,9.6|
4,5,1.8|
4,6,4.6|
4,7,7.9|
5,0,9.9|
5,1,5.6|
5,2,9.7|
5,3,4.7|
5,4,8.3|
5,5,8.5|
5,6,7.7|
5,7,0.7|
6,0,1.8|
6,1,2.8|
6,2,2.7|
6,3,7.5|
6,4,2.5|
6,5,1.1|
6,6,4|
6,7,4.5|
7,0,9.2|
7,1,5.1|
7,2,2|
7,3,6.5|
7,4,0.52|
7,5,6|
7,6,9.7|
7,7,1|
];
constraint_x5_y5=[
0,0,0.15|
0,1,0.8|
0,2,7.1|
0,3,7.9|
0,4,3|
0,5,2.9|
0,6,6.4|
0,7,1.4|
1,0,4.6|
1,1,8.2|
1,2,8.1|
1,3,9|
1,4,2.3|
1,5,9.4|
1,6,6.8|
1,7,9.3|
2,0,6.2|
2,1,9.4|
2,2,8.8|
2,3,6.1|
2,4,4.7|
2,5,7.6|
2,6,4.3|
2,7,2.9|
3,0,6.1|
3,1,8.9|
3,2,7.6|
3,3,1.7|
3,4,5.7|
3,5,9.7|
3,6,9.3|
3,7,0.7|
4,0,9.7|
4,1,5.7|
4,2,7.6|
4,3,6.9|
4,4,0.29|
4,5,9.9|
4,6,4.9|
4,7,3.3|
5,0,9.9|
5,1,8.2|
5,2,4.3|
5,3,0.84|
5,4,7.4|
5,5,4.1|
5,6,2.5|
5,7,7.5|
6,0,1.3|
6,1,2.8|
6,2,6.9|
6,3,7.7|
6,4,2.8|
6,5,1.1|
6,6,3.5|
6,7,2.3|
7,0,1.8|
7,1,8.8|
7,2,7.1|
7,3,2.3|
7,4,7.7|
7,5,6.7|
7,6,8.2|
7,7,6.6|
];
constraint_x6_y6=[
0,0,2.8|
0,1,1.2|
0,2,1.5|
0,3,0.54|
0,4,0.14|
0,5,1.2|
0,6,5.4|
0,7,0.91|
1,0,5.5|
1,1,3.9|
1,2,6.7|
1,3,6.4|
1,4,3.1|
1,5,9.4|
1,6,2|
1,7,2.7|
2,0,4.2|
2,1,8.7|
2,2,0.36|
2,3,9.4|
2,4,1.7|
2,5,6.7|
2,6,4.4|
2,7,8.8|
3,0,9.7|
3,1,6.2|
3,2,1.9|
3,3,4.6|
3,4,6.9|
3,5,5.1|
3,6,4.1|
3,7,5.1|
4,0,1.4|
4,1,2.8|
4,2,5.4|
4,3,6.7|
4,4,6.2|
4,5,2.2|
4,6,0.017|
4,7,0.2|
5,0,1|
5,1,6.7|
5,2,4.6|
5,3,4.2|
5,4,8.5|
5,5,1.6|
5,6,6|
5,7,6.3|
6,0,1.5|
6,1,0.9|
6,2,3.2|
6,3,6|
6,4,7.3|
6,5,4.2|
6,6,2|
6,7,3.8|
7,0,8.4|
7,1,1.7|
7,2,8.2|
7,3,1.2|
7,4,4|
7,5,9.2|
7,6,2.1|
7,7,4.3|
];
constraint_x7_y7=[
0,0,4.1|
0,1,2.3|
0,2,9.7|
0,3,3|
0,4,1.8|
0,5,6.2|
0,6,5.4|
0,7,1.5|
1,0,8.8|
1,1,5.4|
1,2,0.51|
1,3,7.5|
1,4,4.1|
1,5,9|
1,6,5.7|
1,7,1.9|
2,0,9.6|
2,1,2.2|
2,2,8.6|
2,3,9.5|
2,4,3.4|
2,5,5.8|
2,6,4.6|
2,7,3.3|
3,0,4.3|
3,1,8.8|
3,2,2.9|
3,3,3.2|
3,4,3|
3,5,7.3|
3,6,0.39|
3,7,0.78|
4,0,0.051|
4,1,0.4|
4,2,7.8|
4,3,1.2|
4,4,9.6|
4,5,6.5|
4,6,8.7|
4,7,3.7|
5,0,0.0022|
5,1,6.3|
5,2,2.2|
5,3,3.6|
5,4,9.1|
5,5,2.2|
5,6,9|
5,7,4.3|
6,0,0.76|
6,1,4.9|
6,2,2.1|
6,3,9.4|
6,4,9.5|
6,5,9.5|
6,6,5|
6,7,6.7|
7,0,7|
7,1,6.1|
7,2,1.7|
7,3,3.6|
7,4,5|
7,5,3.5|
7,6,9.8|
7,7,4.7|
];
constraint_x8_y8=[
0,0,1.6|
0,1,7.2|
0,2,2.8|
0,3,0.73|
0,4,3.2|
0,5,6.1|
0,6,2.8|
0,7,9.6|
1,0,1.5|
1,1,3.2|
1,2,7.9|
1,3,7.9|
1,4,4.6|
1,5,8.7|
1,6,2.1|
1,7,0.24|
2,0,0.71|
2,1,9.4|
2,2,7.5|
2,3,2.4|
2,4,0.7|
2,5,9.3|
2,6,2.9|
2,7,1.9|
3,0,6.4|
3,1,7.4|
3,2,7.5|
3,3,7.7|
3,4,1|
3,5,4.2|
3,6,0.51|
3,7,3.6|
4,0,1.6|
4,1,6.5|
4,2,7.7|
4,3,3.2|
4,4,0.55|
4,5,7.5|
4,6,0.47|
4,7,6.7|
5,0,9.2|
5,1,7.8|
5,2,4.4|
5,3,5.4|
5,4,8.9|
5,5,2.6|
5,6,4.7|
5,7,3.9|
6,0,5.1|
6,1,3|
6,2,7.4|
6,3,5|
6,4,7.6|
6,5,3.4|
6,6,7.9|
6,7,4.3|
7,0,6.7|
7,1,2.1|
7,2,3.9|
7,3,3.7|
7,4,10|
7,5,3.3|
7,6,8.3|
7,7,6|
];
constraint_x9_y9=[
0,0,7.3|
0,1,0.95|
0,2,8|
0,3,6.6|
0,4,3.1|
0,5,3|
0,6,7.3|
0,7,5.3|
1,0,7.7|
1,1,6|
1,2,9.3|
1,3,1.8|
1,4,1|
1,5,4.3|
1,6,1.1|
1,7,7.6|
2,0,4.8|
2,1,3.3|
2,2,5.2|
2,3,6.9|
2,4,8.9|
2,5,9|
2,6,0.97|
2,7,7.8|
3,0,0.2|
3,1,6.5|
3,2,0.69|
3,3,1.1|
3,4,8.2|
3,5,6.8|
3,6,1.6|
3,7,4.8|
4,0,2.1|
4,1,9.4|
4,2,0.3|
4,3,5.7|
4,4,0.0034|
4,5,6.2|
4,6,9.2|
4,7,1.3|
5,0,8.7|
5,1,3.8|
5,2,9.5|
5,3,8.8|
5,4,9|
5,5,6.5|
5,6,4.1|
5,7,0.93|
6,0,7|
6,1,1.3|
6,2,9|
6,3,2.9|
6,4,5.4|
6,5,7.1|
6,6,3.8|
6,7,2.7|
7,0,9|
7,1,8.4|
7,2,9|
7,3,9.5|
7,4,5.6|
7,5,3.4|
7,6,0.82|
7,7,9.1|
];
initial_distribution_y1=[0.024,0.21,0.19,0.18,0.091,0.087,0.1,0.13];
initial_distribution_y2=[0.15,0.017,0.089,0.082,0.18,0.37,0.092,0.023];
initial_distribution_y3=[0.13,0.16,0.18,0.21,0.025,0.069,0.051,0.17];
initial_distribution_y4=[0.22,0.098,0.16,0.026,0.14,0.016,0.21,0.13];
initial_distribution_y5=[0.085,0.092,0.19,0.27,0.087,0.0038,0.078,0.19];
initial_distribution_y6=[0.044,0.023,0.25,0.23,0.27,0.1,0.058,0.016];
initial_distribution_y7=[0.29,0.043,0.26,0.1,0.17,0.005,0.059,0.071];
initial_distribution_y8=[0.23,0.14,0.014,0.19,0.13,0.017,0.19,0.086];
initial_distribution_y9=[0.066,0.089,0.17,0.19,0.1,0.14,0.15,0.077];
transition_y1=[
0.11,0.14,0.081,0.19,0.19,0.21,0.0071,0.076|
0.2,0.15,0.071,0.16,0.18,0.19,0.025,0.029|
0.24,0.14,0.078,0.082,0.039,0.12,0.18,0.13|
0.15,0.12,0.026,0.11,0.18,0.13,0.1,0.18|
0.17,0.15,0.037,0.15,0.097,0.076,0.2,0.12|
0.068,0.12,0.17,0.13,0.15,0.16,0.068,0.14|
0.045,0.17,0.11,0.14,0.19,0.16,0.15,0.039|
0.16,0.13,0.2,0.13,0.1,0.083,0.14,0.051|
];
transition_y2=[
0.16,0.16,0.014,0.2,0.15,0.044,0.13,0.14|
0.24,0.22,0.083,0.13,0.055,0.051,0.16,0.063|
0.062,0.089,0.021,0.14,0.24,0.16,0.24,0.051|
0.026,0.22,0.16,0.21,0.084,0.023,0.22,0.058|
0.053,0.18,0.14,0.17,0.069,0.18,0.042,0.17|
0.16,0.14,0.21,0.045,0.057,0.15,0.17,0.066|
0.092,0.056,0.15,0.17,0.0094,0.19,0.15,0.19|
0.2,0.032,0.03,0.14,0.021,0.11,0.15,0.32|
];
transition_y3=[
0.0063,0.2,0.16,0.11,0.11,0.19,0.17,0.058|
0.16,0.19,0.021,0.054,0.2,0.21,0.02,0.14|
0.01,0.054,0.22,0.16,0.24,0.2,0.09,0.019|
0.22,0.01,0.14,0.074,0.022,0.073,0.18,0.28|
0.12,0.13,0.16,0.18,0.18,0.011,0.1,0.12|
0.0037,0.14,0.097,0.14,0.16,0.16,0.17,0.12|
0.093,0.21,0.11,0.053,0.24,0.095,0.19,0.0097|
0.23,0.23,0.12,0.063,0.048,0.12,0.092,0.091|
];
transition_y4=[
0.16,0.065,0.17,0.16,0.16,0.14,0.12,0.017|
0.19,0.13,0.18,0.16,0.015,0.12,0.13,0.082|
0.068,0.14,0.064,0.19,0.13,0.046,0.27,0.086|
0.14,0.13,0.1,0.026,0.16,0.12,0.16,0.17|
0.16,0.12,0.26,0.096,0.096,0.004,0.018,0.25|
0.079,0.13,0.17,0.1,0.14,0.17,0.16,0.052|
0.024,0.13,0.19,0.12,0.069,0.032,0.21,0.23|
0.096,0.22,0.14,0.016,0.0063,0.066,0.2,0.26|
];
transition_y5=[
0.061,0.14,0.083,0.16,0.24,0.071,0.05,0.19|
0.21,0.21,0.15,0.13,0.019,0.086,0.019,0.18|
0.14,0.15,0.21,0.038,0.22,0.2,0.028,0.026|
0.082,0.0041,0.026,0.26,0.21,0.18,0.077,0.16|
0.11,0.24,0.12,0.21,0.041,0.039,0.053,0.19|
0.12,0.042,0.031,0.12,0.044,0.22,0.19,0.22|
0.18,0.25,0.17,0.062,0.11,0.074,0.088,0.065|
0.26,0.02,0.18,0.2,0.14,0.094,0.018,0.09|
];
transition_y6=[
0.21,0.2,0.21,0.0053,0.12,0.071,0.055,0.13|
0.16,0.17,0.074,0.18,0.1,0.11,0.18,0.028|
0.16,0.17,0.19,0.028,0.011,0.14,0.16,0.15|
0.065,0.1,0.077,0.2,0.09,0.21,0.094,0.16|
0.2,0.15,0.023,0.19,0.02,0.14,0.2,0.075|
0.13,0.12,0.1,0.07,0.056,0.022,0.24,0.25|
0.06,0.13,0.29,0.049,0.11,0.1,0.14,0.12|
0.1,0.017,0.014,0.23,0.42,0.18,0.016,0.03|
];
transition_y7=[
0.24,0.26,0.031,0.0093,0.3,0.064,0.032,0.061|
0.0059,0.16,0.15,0.033,0.14,0.19,0.11,0.21|
0.16,0.042,0.15,0.14,0.1,0.12,0.21,0.083|
0.028,0.19,0.17,0.046,0.21,0.079,0.16,0.11|
0.08,0.15,0.099,0.095,0.19,0.092,0.14,0.14|
0.16,0.14,0.13,0.14,0.18,0.2,0.023,0.025|
0.25,0.031,0.2,0.1,0.15,0.17,0.049,0.055|
0.076,0.12,0.13,0.19,0.15,0.14,0.0068,0.2|
];
transition_y8=[
0.014,0.18,0.15,0.08,0.24,0.18,0.067,0.097|
0.1,0.14,0.071,0.043,0.071,0.19,0.12,0.25|
0.14,0.084,0.049,0.1,0.081,0.2,0.28,0.057|
0.22,0.16,0.015,0.13,0.1,0.14,0.2,0.024|
0.058,0.067,0.14,0.028,0.19,0.02,0.29,0.2|
0.068,0.13,0.07,0.22,0.059,0.21,0.072,0.17|
0.13,0.14,0.06,0.16,0.072,0.18,0.12,0.14|
0.037,0.16,0.17,0.15,0.011,0.11,0.19,0.17|
];
transition_y9=[
0.072,0.091,0.049,0.15,0.3,0.083,0.12,0.14|
0.18,0.14,0.2,0.13,0.01,0.13,0.19,0.012|
0.083,0.12,0.12,0.08,0.14,0.076,0.18,0.2|
0.17,0.054,0.041,0.24,0.084,0.064,0.21,0.14|
0.12,0.063,0.21,0.13,0.13,0.27,0.039,0.037|
0.047,0.24,0.15,0.1,0.2,0.15,0.024,0.081|
0.25,0.048,0.11,0.032,0.027,0.19,0.2,0.14|
0.16,0.065,0.086,0.097,0.22,0.1,0.11,0.16|
];
